
Gurobi 7.5.2 (linux64) logging started Sat Jun 23 16:25:59 2018

Changed value of parameter LogFile to result/ilp/simNo_4-n_100-m_40-s_4-minVAF_0.05-cov_2000-k_1-fn_0.15-fp_0.0001-na_0.15.ILP.gurobiSolverLog
   Prev: gurobi.log  Default: 
Changed value of parameter TimeLimit to 86400.0
   Prev: 1e+100  Min: 0.0  Max: 1e+100  Default: 1e+100
Optimize a model with 1265601 rows, 330440 columns and 3489120 nonzeros
Variable types: 0 continuous, 330440 integer (330440 binary)
Coefficient statistics:
  Matrix range     [3e-03, 3e+00]
  Objective range  [1e+00, 1e+01]
  Bounds range     [1e+00, 1e+00]
  RHS range        [3e-01, 2e+00]
Found heuristic solution: objective -18924.95887
Presolve removed 307257 rows and 213650 columns (presolve time = 5s) ...
Presolve removed 328560 rows and 213650 columns (presolve time = 10s) ...
Presolve removed 329356 rows and 213650 columns (presolve time = 15s) ...
Presolve removed 329803 rows and 213650 columns (presolve time = 20s) ...
Presolve removed 330090 rows and 213650 columns (presolve time = 25s) ...
Presolve removed 330090 rows and 213650 columns (presolve time = 30s) ...
Presolve removed 330090 rows and 213650 columns (presolve time = 37s) ...
Presolve removed 330090 rows and 213650 columns (presolve time = 40s) ...
Presolve removed 330090 rows and 213650 columns (presolve time = 45s) ...
Presolve removed 330090 rows and 213650 columns (presolve time = 50s) ...
Presolve removed 330090 rows and 213650 columns (presolve time = 55s) ...
Presolve removed 330090 rows and 213650 columns (presolve time = 62s) ...
Presolve removed 330090 rows and 213650 columns (presolve time = 66s) ...
Presolve removed 330090 rows and 213650 columns
Presolve time: 65.78s
Presolved: 935511 rows, 116790 columns, 2596353 nonzeros
Variable types: 0 continuous, 116790 integer (116790 binary)
Presolve removed 0 rows and 0 columns (presolve time = 5s) ...
Presolved: 116790 rows, 1052301 columns, 2713143 nonzeros

Presolve removed 116790 rows and 1052301 columns

Root simplex log...

Iteration    Objective       Primal Inf.    Dual Inf.      Time
       0    1.2290254e+01   0.000000e+00   1.152560e+05     77s
   12397   -2.0517203e+02   0.000000e+00   6.782218e+05     80s
   21565   -2.3536241e+02   0.000000e+00   1.399809e+06     85s
   33025   -2.7487217e+02   0.000000e+00   5.317925e+05     90s
   44485   -3.1888636e+02   0.000000e+00   2.500220e+05     95s
   54226   -3.3869075e+02   0.000000e+00   1.634726e+05    100s
   66832   -3.7385989e+02   0.000000e+00   1.517600e+05    105s
   77719   -3.9528744e+02   0.000000e+00   7.494000e+03    110s
   81980   -4.0920414e+02   0.000000e+00   0.000000e+00    113s
   81980   -4.0920414e+02   0.000000e+00   0.000000e+00    116s

Root relaxation: objective -4.092041e+02, 81980 iterations, 46.48 seconds
Total elapsed time = 182.52s
Total elapsed time = 221.78s

    Nodes    |    Current Node    |     Objective Bounds      |     Work
 Expl Unexpl |  Obj  Depth IntInf | Incumbent    BestBd   Gap | It/Node Time

     0     0 -409.20414    0 1126 -18924.959 -409.20414  97.8%     -  252s
H    0     0                    -467.8077633 -409.20414  12.5%     -  287s
     0     0 -413.33115    0 1139 -467.80776 -413.33115  11.6%     -  325s
     0     0 -413.33115    0 1140 -467.80776 -413.33115  11.6%     -  361s
     0     0 -416.25446    0 1124 -467.80776 -416.25446  11.0%     -  386s
     0     0 -416.65536    0 1146 -467.80776 -416.65536  10.9%     -  423s
     0     0 -417.04699    0 1147 -467.80776 -417.04699  10.9%     -  439s
     0     0 -417.07236    0 1144 -467.80776 -417.07236  10.8%     -  449s
     0     0 -417.07428    0 1129 -467.80776 -417.07428  10.8%     -  458s
     0     0 -417.08291    0 1145 -467.80776 -417.08291  10.8%     -  464s
     0     0 -418.09504    0 1145 -467.80776 -418.09504  10.6%     -  484s
     0     0 -418.14519    0 1145 -467.80776 -418.14519  10.6%     -  518s
     0     0 -420.46282    0 1033 -467.80776 -420.46282  10.1%     -  537s
     0     0 -422.21991    0 1129 -467.80776 -422.21991  9.74%     -  580s
     0     0 -422.41059    0 1016 -467.80776 -422.41059  9.70%     -  620s
     0     0 -422.41059    0 1055 -467.80776 -422.41059  9.70%     -  628s
     0     0 -422.41059    0 1130 -467.80776 -422.41059  9.70%     -  645s
     0     0 -422.41059    0 1058 -467.80776 -422.41059  9.70%     -  676s
     0     0 -423.23599    0 1014 -467.80776 -423.23599  9.53%     -  697s
     0     0 -423.51113    0 1017 -467.80776 -423.51113  9.47%     -  731s
     0     0 -423.51113    0 1016 -467.80776 -423.51113  9.47%     -  742s
     0     0 -423.51113    0 1013 -467.80776 -423.51113  9.47%     -  757s
     0     0 -423.51113    0 1013 -467.80776 -423.51113  9.47%     -  788s
     0     0 -425.63359    0 1033 -467.80776 -425.63359  9.02%     -  854s
     0     0 -425.71220    0 1044 -467.80776 -425.71220  9.00%     -  889s
     0     0 -425.71220    0 1089 -467.80776 -425.71220  9.00%     -  901s
     0     0 -427.36301    0 1025 -467.80776 -427.36301  8.65%     -  978s
     0     0 -427.36301    0 1080 -467.80776 -427.36301  8.65%     - 1010s
     0     0 -428.32598    0 1132 -467.80776 -428.32598  8.44%     - 1063s
     0     0 -428.32598    0 1055 -467.80776 -428.32598  8.44%     - 1103s
     0     0 -429.83922    0  914 -467.80776 -429.83922  8.12%     - 1149s
     0     0 -429.83922    0  910 -467.80776 -429.83922  8.12%     - 1177s
     0     0 -430.02264    0 1149 -467.80776 -430.02264  8.08%     - 1266s
     0     0 -430.59584    0 1167 -467.80776 -430.59584  7.95%     - 1322s
     0     0 -430.59584    0 1169 -467.80776 -430.59584  7.95%     - 1336s
     0     0 -431.03738    0 1070 -467.80776 -431.03738  7.86%     - 1363s
     0     0 -431.47037    0 1171 -467.80776 -431.47037  7.77%     - 1399s
     0     0 -431.49002    0 1056 -467.80776 -431.49002  7.76%     - 1413s
     0     0 -431.49002    0 1017 -467.80776 -431.49002  7.76%     - 1421s
     0     0 -432.65934    0 1096 -467.80776 -432.65934  7.51%     - 1453s
     0     0 -433.27840    0 1107 -467.80776 -433.27840  7.38%     - 1509s
     0     0 -433.37011    0  986 -467.80776 -433.37011  7.36%     - 1528s
     0     0 -433.37011    0  989 -467.80776 -433.37011  7.36%     - 1538s
     0     0 -433.75988    0 1117 -467.80776 -433.75988  7.28%     - 1568s
     0     0 -434.44772    0 1168 -467.80776 -434.44772  7.13%     - 1613s
     0     0 -434.44772    0 1170 -467.80776 -434.44772  7.13%     - 1624s
     0     0 -435.85778    0 1185 -467.80776 -435.85778  6.83%     - 1666s
     0     0 -436.20170    0 1192 -467.80776 -436.20170  6.76%     - 1707s
     0     0 -436.24592    0 1188 -467.80776 -436.24592  6.75%     - 1721s
     0     0 -436.25104    0 1194 -467.80776 -436.25104  6.75%     - 1731s
     0     0 -436.25902    0 1191 -467.80776 -436.25902  6.74%     - 1741s
     0     0 -436.25902    0 1192 -467.80776 -436.25902  6.74%     - 1750s
     0     0 -437.00319    0 1210 -467.80776 -437.00319  6.58%     - 1780s
     0     0 -437.25617    0 1201 -467.80776 -437.25617  6.53%     - 1831s
     0     0 -437.26785    0 1206 -467.80776 -437.26785  6.53%     - 1840s
     0     0 -437.26785    0 1220 -467.80776 -437.26785  6.53%     - 1851s
     0     0 -438.84528    0 1119 -467.80776 -438.84528  6.19%     - 1891s
     0     0 -439.23612    0 1147 -467.80776 -439.23612  6.11%     - 1928s
     0     0 -439.23612    0 1146 -467.80776 -439.23612  6.11%     - 1940s
     0     0 -440.73454    0 1168 -467.80776 -440.73454  5.79%     - 2061s
     0     0 -441.80990    0 1205 -467.80776 -441.80990  5.56%     - 2172s
     0     0 -441.94746    0 1203 -467.80776 -441.94746  5.53%     - 2191s
     0     0 -441.95322    0 1187 -467.80776 -441.95322  5.53%     - 2205s
     0     0 -441.95496    0 1186 -467.80776 -441.95496  5.53%     - 2217s
     0     0 -442.72468    0 1179 -467.80776 -442.72468  5.36%     - 2245s
     0     0 -442.73090    0 1175 -467.80776 -442.73090  5.36%     - 2281s
     0     0 -442.73090    0 1179 -467.80776 -442.73090  5.36%     - 2290s
     0     0 -443.36714    0 1183 -467.80776 -443.36714  5.22%     - 2320s
     0     0 -443.76971    0 1189 -467.80776 -443.76971  5.14%     - 2364s
     0     0 -443.84050    0 1189 -467.80776 -443.84050  5.12%     - 2380s
     0     0 -443.87107    0 1197 -467.80776 -443.87107  5.12%     - 2392s
     0     0 -443.87107    0 1202 -467.80776 -443.87107  5.12%     - 2401s
     0     0 -444.61182    0 1187 -467.80776 -444.61182  4.96%     - 2439s
     0     0 -444.75468    0 1192 -467.80776 -444.75468  4.93%     - 2481s
     0     0 -444.75468    0 1188 -467.80776 -444.75468  4.93%     - 2492s
     0     0 -444.80448    0 1201 -467.80776 -444.80448  4.92%     - 2520s
     0     0 -444.82346    0 1212 -467.80776 -444.82346  4.91%     - 2548s
     0     0 -444.82346    0 1214 -467.80776 -444.82346  4.91%     - 2557s
     0     0 -444.82346    0 1195 -467.80776 -444.82346  4.91%     - 2583s
     0     0 -444.89725    0 1195 -467.80776 -444.89725  4.90%     - 2620s
     0     0 -445.06648    0 1201 -467.80776 -445.06648  4.86%     - 2639s
     0     0 -445.08745    0 1214 -467.80776 -445.08745  4.86%     - 2655s
     0     0 -445.40225    0 1223 -467.80776 -445.40225  4.79%     - 2675s
     0     0 -445.43017    0 1215 -467.80776 -445.43017  4.78%     - 2684s
     0     0 -445.43934    0 1229 -467.80776 -445.43934  4.78%     - 2696s
     0     0 -445.44327    0 1226 -467.80776 -445.44327  4.78%     - 2705s
     0     0 -445.44412    0 1227 -467.80776 -445.44412  4.78%     - 2715s
     0     0 -445.60280    0 1018 -467.80776 -445.60280  4.75%     - 3058s
     0     0 -445.79701    0 1075 -467.80776 -445.79701  4.71%     - 3116s
     0     0 -445.79701    0 1203 -467.80776 -445.79701  4.71%     - 3136s
     0     0 -447.17268    0  995 -467.80776 -447.17268  4.41%     - 3202s
     0     0 -447.41545    0 1004 -467.80776 -447.41545  4.36%     - 3247s
     0     0 -447.61019    0  993 -467.80776 -447.61019  4.32%     - 3305s
     0     0 -447.88872    0 1001 -467.80776 -447.88872  4.26%     - 3329s
     0     0 -447.99809    0  992 -467.80776 -447.99809  4.23%     - 3345s
     0     0 -447.99809    0  997 -467.80776 -447.99809  4.23%     - 3354s
     0     0 -448.07670    0 1003 -467.80776 -448.07670  4.22%     - 3384s
     0     0 -448.35183    0  884 -467.80776 -448.35183  4.16%     - 3433s
     0     0 -448.53656    0 1014 -467.80776 -448.53656  4.12%     - 3468s
     0     0 -448.64007    0 1038 -467.80776 -448.64007  4.10%     - 3491s
     0     0 -448.68496    0 1022 -467.80776 -448.68496  4.09%     - 3505s
     0     0 -448.69118    0 1019 -467.80776 -448.69118  4.09%     - 3517s
     0     0 -448.72444    0 1021 -467.80776 -448.72444  4.08%     - 3535s
     0     0 -448.73178    0 1022 -467.80776 -448.73178  4.08%     - 3551s
     0     0 -448.73178    0 1020 -467.80776 -448.73178  4.08%     - 3561s
     0     0 -449.45630    0 1001 -467.80776 -449.45630  3.92%     - 3598s
     0     0 -449.59387    0  994 -467.80776 -449.59387  3.89%     - 3632s
     0     0 -449.64889    0  974 -467.80776 -449.64889  3.88%     - 3648s
     0     0 -449.64889    0  987 -467.80776 -449.64889  3.88%     - 3657s
     0     0 -449.82266    0 1000 -467.80776 -449.82266  3.84%     - 3683s
     0     0 -450.00264    0 1004 -467.80776 -450.00264  3.81%     - 3722s
     0     0 -450.07688    0 1006 -467.80776 -450.07688  3.79%     - 3742s
     0     0 -450.08587    0 1012 -467.80776 -450.08587  3.79%     - 3758s
     0     0 -450.11162    0 1007 -467.80776 -450.11162  3.78%     - 3767s
     0     0 -450.11255    0 1017 -467.80776 -450.11255  3.78%     - 3778s
     0     0 -450.11522    0 1006 -467.80776 -450.11522  3.78%     - 3797s
     0     0 -450.14224    0  998 -467.80776 -450.14224  3.78%     - 3831s
     0     0 -450.14224    0 1005 -467.80776 -450.14224  3.78%     - 3840s
     0     0 -450.29652    0 1019 -467.80776 -450.29652  3.74%     - 3869s
     0     0 -450.41737    0 1012 -467.80776 -450.41737  3.72%     - 3904s
     0     0 -450.41927    0  997 -467.80776 -450.41927  3.72%     - 3916s
     0     0 -450.90261    0 1001 -467.80776 -450.90261  3.61%     - 3952s
     0     0 -450.96954    0 1007 -467.80776 -450.96954  3.60%     - 3990s
     0     0 -450.96954    0 1013 -467.80776 -450.96954  3.60%     - 4000s
     0     0 -450.96954    0 1006 -467.80776 -450.96954  3.60%     - 4020s
     0     0 -451.14897    0  999 -467.80776 -451.14897  3.56%     - 4048s
     0     0 -451.20065    0 1000 -467.80776 -451.20065  3.55%     - 4059s
     0     0 -451.20065    0 1006 -467.80776 -451.20065  3.55%     - 4070s
     0     0 -451.20065    0 1002 -467.80776 -451.20065  3.55%     - 4092s
     0     0 -451.20065    0 1005 -467.80776 -451.20065  3.55%     - 4116s
     0     0 -451.21716    0 1000 -467.80776 -451.21716  3.55%     - 4140s
     0     0 -451.36801    0 1021 -467.80776 -451.36801  3.51%     - 4168s
     0     0 -451.44740    0 1003 -467.80776 -451.44740  3.50%     - 4182s
     0     0 -451.48924    0 1006 -467.80776 -451.48924  3.49%     - 4198s
     0     0 -451.50015    0 1009 -467.80776 -451.50015  3.49%     - 4214s
     0     0 -451.50015    0 1011 -467.80776 -451.50015  3.49%     - 4225s
     0     0 -451.58973    0  996 -467.80776 -451.58973  3.47%     - 4495s
     0     0 -451.65737    0  992 -467.80776 -451.65737  3.45%     - 4520s
     0     0 -451.65737    0  997 -467.80776 -451.65737  3.45%     - 4529s
     0     0 -451.67113    0 1151 -467.80776 -451.67113  3.45%     - 4551s
     0     0 -451.68109    0 1134 -467.80776 -451.68109  3.45%     - 4585s
     0     0 -451.68109    0 1134 -467.80776 -451.68109  3.45%     - 4594s
     0     0 -451.68109    0 1134 -467.80776 -451.68109  3.45%     - 4612s
     0     0 -451.68109    0  997 -467.80776 -451.68109  3.45%     - 4787s
     0     0 -451.68109    0  999 -467.80776 -451.68109  3.45%     - 4821s
     0     0 -451.68109    0  993 -467.80776 -451.68109  3.45%     - 4932s
     0     0 -451.68109    0  993 -467.80776 -451.68109  3.45%     - 4986s
     0     2 -451.68109    0  993 -467.80776 -451.68109  3.45%     - 5072s
     1     3 -451.87919    1  987 -467.80776 -451.68109  3.45%  2073 5087s
     2     4 -460.91777    1 1166 -467.80776 -451.88265  3.40%  7090 5221s
     3     5 -452.01125    2  941 -467.80776 -451.88377  3.40%  4922 5230s
     4     6 -467.69391    2  695 -467.80776 -452.01125  3.38%  6120 5338s
     5     7 -452.69909    3  972 -467.80776 -452.01125  3.38%  5009 5350s
     6     8 -466.04311    3  618 -467.80776 -452.69909  3.23%  5192 5421s
     7     9 -453.13144    4  960 -467.80776 -452.69909  3.23%  4616 5433s
     8     8     cutoff    4      -467.80776 -453.13144  3.14%  5743 5566s
     9     9 -453.86841    5  967 -467.80776 -453.13568  3.14%  5195 5580s
    11    11 -454.23349    7  965 -467.80776 -453.13568  3.14%  4320 5593s
    13    13 -454.95912    9  966 -467.80776 -453.13568  3.14%  3708 5603s
    14    12     cutoff    9      -467.80776 -453.13568  3.14%  3518 5629s
    15    13 -462.32879   10  751 -467.80776 -453.13568  3.14%  3703 5690s
    16    14 -455.43078   10  963 -467.80776 -453.13568  3.14%  3491 5698s
    17    15 -464.39230   11  723 -467.80776 -453.13568  3.14%  3555 5754s
    18    16 -455.51922   11  936 -467.80776 -453.13568  3.14%  3366 5758s
    19    17 -455.58800   12  885 -467.80776 -453.13568  3.14%  3197 5761s
    21    19 -455.90820   14  877 -467.80776 -453.13568  3.14%  2916 5769s
    22    20 -456.25212   15  876 -467.80776 -453.13568  3.14%  2801 5774s
    23    21 -462.30508   15  843 -467.80776 -453.13568  3.14%  2821 5814s
    24    22 -456.52725   16  772 -467.80776 -453.13568  3.14%  2712 5819s
    25    23 -462.30508   16  684 -467.80776 -453.13568  3.14%  2649 5848s
    26    24 -463.13048   17  681 -467.80776 -453.13568  3.14%  2569 5857s
    27    23     cutoff   17      -467.80776 -453.13568  3.14%  2501 5870s
    28    24 -464.78128   18  672 -467.80776 -453.13568  3.14%  2421 5875s
    29    25 -466.43209   18  627 -467.80776 -453.13568  3.14%  2354 5884s
    30    26 -467.25749   19  601 -467.80776 -453.13568  3.14%  2277 5886s
    34    26     cutoff   22      -467.80776 -453.13568  3.14%  2016 5891s
    36    26 -461.64096    5  913 -467.80776 -453.86841  2.98%  2015 5945s
    37    27 -462.11743    6  973 -467.80776 -453.86841  2.98%  1970 5955s
    38    26     cutoff    6      -467.80776 -453.86841  2.98%  1924 5960s
    40    28 -463.56690    8  718 -467.80776 -453.86841  2.98%  1840 5970s
    42    28     cutoff    9      -467.80776 -453.86841  2.98%  1760 5976s
    43    29 -464.88564   10  708 -467.80776 -453.86841  2.98%  1722 5980s
    46    28 -465.21771   11  611 -467.80776 -453.86841  2.98%  1619 5988s
    49    29 -465.21771   13  598 -467.80776 -453.86841  2.98%  1521 5992s
    50    30 -466.04311   14  548 -467.80776 -453.86841  2.98%  1496 5996s
    52    30 -466.86851   15  523 -467.80776 -453.86841  2.98%  1449 6004s
    53    31 -467.69391   16  495 -467.80776 -453.86841  2.98%  1424 6008s
    56    28     cutoff   17      -467.80776 -453.86841  2.98%  1350 6010s
    58    28 -465.21771    6  701 -467.80776 -453.87293  2.98%  1356 6055s
    59    29 -466.04311    7  628 -467.80776 -453.87293  2.98%  1339 6063s
    60    30 -466.04311    8  655 -467.80776 -453.87293  2.98%  1318 6065s
    62    30 -466.86851    9  612 -467.80776 -453.87293  2.98%  1284 6071s
    65    31 -467.69391   11  566 -467.80776 -453.87293  2.98%  1227 6077s
    68    30     cutoff   12      -467.80776 -453.87293  2.98%  1174 6080s
    71    29 -464.39230    7  367 -467.80776 -454.32238  2.88%  1194 6141s
    72    28     cutoff    8      -467.80776 -454.32238  2.88%  1183 6150s
    73    29 -464.50615    8  355 -467.80776 -454.32238  2.88%  1171 6155s
    74    30 -465.12520    9  357 -467.80776 -454.32238  2.88%  1162 6161s
    76    30     cutoff   10      -467.80776 -454.32238  2.88%  1136 6168s
    77    29     cutoff    9      -467.80776 -454.32238  2.88%  1127 6177s
    78    30 -466.15696   11  598 -467.80776 -454.32238  2.88%  1120 6187s
    79    29     cutoff   11      -467.80776 -454.32238  2.88%  1110 6191s
    81    29     cutoff   12      -467.80776 -454.32238  2.88%  1086 6195s
    83    29     cutoff   13      -467.80776 -454.32238  2.88%  1062 6200s
    85    31 -467.47760   15  545 -467.80776 -454.32238  2.88%  1039 6206s
    90    28 -463.56690    8  577 -467.80776 -455.53038  2.62%  1053 6270s
    91    29 -466.59338    9  661 -467.80776 -455.53038  2.62%  1050 6286s
    93    29 -466.70723   10  639 -467.80776 -455.53038  2.62%  1030 6291s
    94    30 -466.81728   11  609 -467.80776 -455.53038  2.62%  1020 6295s
    98    28     cutoff   12      -467.80776 -455.53038  2.62%   982 6300s
   100    26     cutoff   12      -467.80776 -455.58800  2.61%   970 6317s
   101    27 -459.00346   13  754 -467.80776 -455.60752  2.61%   976 6349s
   102    28 -459.55373   14  770 -467.80776 -455.60752  2.61%   971 6357s
   103    29 -461.47967   15  670 -467.80776 -455.60752  2.61%   964 6364s
   104    30 -462.30508   16  531 -467.80776 -455.60752  2.61%   957 6367s
   105    29     cutoff   17      -467.80776 -455.60752  2.61%   951 6371s
   106    30 -462.88709   17  547 -467.80776 -455.60752  2.61%   945 6375s
   108    30     cutoff   19      -467.80776 -455.60752  2.61%   933 6383s
   109    31 -464.05593   19  548 -467.80776 -455.60752  2.61%   927 6386s
   111    31     cutoff   21      -467.80776 -455.60752  2.61%   914 6390s
   112    32 -465.33155   21  459 -467.80776 -455.60752  2.61%   908 6395s
   115    33 -466.15696   23  293 -467.80776 -455.60752  2.61%   889 6402s
   117    35 -467.18871   25  522 -467.80776 -455.60752  2.61%   876 6406s
   123    31 -466.43209   14  816 -467.80776 -456.52725  2.41%   876 6465s
   124    32 -467.15230   15 1174 -467.80776 -456.52725  2.41%   871 6471s
   128    32     cutoff   18      -467.80776 -456.52725  2.41%   845 6475s
   131    31 -456.52725   17  738 -467.80776 -456.52725  2.41%   828 6482s
   132    32 -458.02521   18  870 -467.80776 -456.52725  2.41%   831 6501s
   133    33 -458.85061   19  870 -467.80776 -456.52725  2.41%   829 6511s
   134    34 -459.01569   20  871 -467.80776 -456.52725  2.41%   827 6519s
   135    35 -460.57382   21  863 -467.80776 -456.52725  2.41%   831 6534s
   136    36 -460.77655   22  833 -467.80776 -456.52725  2.41%   828 6541s
   137    37 -461.63252   23  831 -467.80776 -456.52725  2.41%   825 6547s
   138    38 -462.17809   24  829 -467.80776 -456.52725  2.41%   821 6554s
   139    39 -462.94000   25  830 -467.80776 -456.52725  2.41%   819 6562s
   140    40 -463.82890   26  827 -467.80776 -456.52725  2.41%   816 6570s
   141    41 -464.42754   27  813 -467.80776 -456.52725  2.41%   814 6577s
   142    42 -464.78128   28  673 -467.80776 -456.52725  2.41%   811 6583s
   143    43 -465.30654   29  815 -467.80776 -456.52725  2.41%   810 6592s
   144    44 -465.60669   30  708 -467.80776 -456.52725  2.41%   806 6596s
   145    45 -466.43209   31  809 -467.80776 -456.52725  2.41%   805 6604s
   146    46 -467.14744   32  834 -467.80776 -456.52725  2.41%   804 6614s
   147    45     cutoff   33      -467.80776 -456.52725  2.41%   801 6618s
   148    44     cutoff   33      -467.80776 -456.52725  2.41%   797 6620s
   149    43     cutoff   32      -467.80776 -456.52725  2.41%   796 6627s
   150    42     cutoff   31      -467.80776 -456.52725  2.41%   793 6630s
   151    41     cutoff   17      -467.80776 -456.62031  2.39%   878 6817s
   152    42 -465.33155   18  808 -467.80776 -458.02521  2.09%   927 6920s
   153    43 -466.15696   19  816 -467.80776 -458.02521  2.09%   927 6933s
   154    44 -466.43209   20  818 -467.80776 -458.02521  2.09%   925 6941s
   155    45 -466.98236   21  811 -467.80776 -458.02521  2.09%   925 6952s
   156    44     cutoff   21      -467.80776 -458.02521  2.09%   923 6957s
   157    43     cutoff   20      -467.80776 -458.02521  2.09%   921 6962s
   158    43 -467.74427   22  807 -467.80776 -458.02521  2.09%   924 6972s
   160    41     cutoff   23      -467.80776 -458.02521  2.09%   914 6975s
   161    42 -464.15272   19 1207 -467.80776 -458.85061  1.91%   977 7112s
   162    43 -464.62843   20  562 -467.80776 -458.85061  1.91%   973 7123s
   164    43     cutoff   22      -467.80776 -458.85061  1.91%   965 7132s
   165    44 -465.33155   22  500 -467.80776 -458.85061  1.91%   963 7143s
   166    45 -465.92113   23  277 -467.80776 -458.85061  1.91%   961 7155s
   167    44     cutoff   24      -467.80776 -458.85061  1.91%   975 7188s
   168    45 -466.81728   24  274 -467.80776 -458.85061  1.91%   975 7198s
   169    44     cutoff   25      -467.80776 -458.85061  1.91%   971 7201s
   170    45 -466.98236   25  228 -467.80776 -458.85061  1.91%   966 7205s
   171    44     cutoff   26      -467.80776 -458.85061  1.91%   966 7212s
   172    43     cutoff   26      -467.80776 -458.85061  1.91%   962 7215s
   173    44 -466.27924   20  504 -467.80776 -459.00346  1.88%   992 7284s
   174    45 -467.05740   21  499 -467.80776 -459.00346  1.88%   991 7297s
   176    43     cutoff   21      -467.80776 -459.00346  1.88%   983 7304s
   177    42     cutoff   22      -467.80776 -459.00346  1.88%   978 7306s
   178    41     cutoff   14      -467.80776 -459.01926  1.88%  1029 7410s
   179    42 -461.60195   21  859 -467.80776 -459.56691  1.76%  1032 7428s
   180    43 -461.94587   22  854 -467.80776 -459.56691  1.76%  1027 7431s
   182    45 -462.56492   24  845 -467.80776 -459.56691  1.76%  1018 7436s
   183    46 -462.97763   25  840 -467.80776 -459.56691  1.76%  1014 7441s
   184    47 -463.68511   26  846 -467.80776 -459.56691  1.76%  1011 7447s
   186    47     cutoff   28      -467.80776 -459.56691  1.76%  1002 7453s
   187    48 -463.80303   28  801 -467.80776 -459.56691  1.76%   997 7456s
   188    49 -464.62843   29  762 -467.80776 -459.56691  1.76%   993 7462s
   190    51 -465.45384   31  744 -467.80776 -459.56691  1.76%   985 7469s
   191    52 -465.45384   32  732 -467.80776 -459.56691  1.76%   980 7471s
   193    54 -465.45384   34  598 -467.80776 -459.56691  1.76%   970 7475s
   195    56 -466.27924   36  596 -467.80776 -459.56691  1.76%   962 7481s
   196    57 -467.10464   37  570 -467.80776 -459.56691  1.76%   958 7486s
   199    56     cutoff   39      -467.80776 -459.56691  1.76%   945 7491s
   201    54     cutoff   37      -467.80776 -459.56691  1.76%   937 7495s
   202    55 -462.02994   15  748 -467.80776 -460.57382  1.55%   940 7510s
   203    56 -462.85534   16  740 -467.80776 -460.57382  1.55%   938 7516s
   204    57 -463.68075   17  743 -467.80776 -460.57382  1.55%   936 7523s
   205    58 -463.68075   18  736 -467.80776 -460.57382  1.55%   932 7527s
   206    59 -464.09345   19  734 -467.80776 -460.57382  1.55%   930 7533s
   207    60 -464.45112   20  732 -467.80776 -460.57382  1.55%   928 7537s
   208    61 -466.98236   21  191 -467.80776 -460.57382  1.55%   928 7548s
   209    62 -466.98236   22  170 -467.80776 -460.57382  1.55%   923 7550s
   211    60     cutoff   23      -467.80776 -460.57382  1.55%   917 7556s
   213    60 -465.33155   21  730 -467.80776 -460.57382  1.55%   913 7565s
   215    60 -465.60669   22  726 -467.80776 -460.57382  1.55%   907 7572s
   216    61 -466.32204   23  721 -467.80776 -460.57382  1.55%   905 7577s
   217    60     cutoff   24      -467.80776 -460.57382  1.55%   903 7582s
   218    61 -466.98236   24  727 -467.80776 -460.57382  1.55%   901 7590s
   222    59     cutoff   25      -467.80776 -460.57382  1.55%   886 7595s
   223    60 -462.97763   22  435 -467.80776 -460.77808  1.50%   889 7613s
   225    60     cutoff   24      -467.80776 -460.77808  1.50%   887 7630s
   226    61 -463.83360   24  314 -467.80776 -460.77808  1.50%   885 7637s
   227    62 -464.37917   25  314 -467.80776 -460.77808  1.50%   884 7643s
   228    63 -465.14108   26  314 -467.80776 -460.77808  1.50%   882 7651s
   229    62     cutoff   27      -467.80776 -460.77808  1.50%   881 7658s
   230    63 -466.02997   27  314 -467.80776 -460.77808  1.50%   879 7665s
   231    64 -466.62862   28  311 -467.80776 -460.77808  1.50%   877 7671s
   232    63     cutoff   29      -467.80776 -460.77808  1.50%   875 7675s
   233    64 -466.77601   29  310 -467.80776 -460.77808  1.50%   872 7680s
   234    65 -467.46023   30  308 -467.80776 -460.77808  1.50%   870 7687s
   236    65 -467.47760   31  307 -467.80776 -460.77808  1.50%   864 7690s
   239    62     cutoff   30      -467.80776 -460.77808  1.50%   855 7695s
   240    61     cutoff   23      -467.80776 -460.92269  1.47%   873 7738s
   241    60     cutoff    2      -467.80776 -460.93270  1.47%   874 7752s
   242    61 -465.21771    2  769 -467.80776 -461.49948  1.35%   890 7795s
   243    62 -466.04311    3  761 -467.80776 -461.49948  1.35%   890 7807s
   244    63 -466.86851    4  628 -467.80776 -461.49948  1.35%   888 7814s
   245    64 -466.86851    5  457 -467.80776 -461.49948  1.35%   884 7817s
   246    65 -467.69391    6  569 -467.80776 -461.49948  1.35%   882 7822s
   248    63     cutoff    7      -467.80776 -461.49948  1.35%   877 7825s
   250    65 -467.73098    7  378 -467.80776 -461.49948  1.35%   873 7837s
   252    63     cutoff    8      -467.80776 -461.49948  1.35%   868 7840s
   254    63 -463.68075   16  674 -467.80776 -461.60195  1.33%   864 7848s
   255    64 -464.50615   17  677 -467.80776 -461.60195  1.33%   863 7854s
   256    65 -465.33155   18  680 -467.80776 -461.60195  1.33%   861 7861s
   257    64     cutoff   19      -467.80776 -461.60195  1.33%   861 7870s
   258    65 -465.64387   19  687 -467.80776 -461.60195  1.33%   860 7878s
   259    66 -466.27487   20  671 -467.80776 -461.60195  1.33%   858 7882s
   260    65     cutoff   21      -467.80776 -461.60195  1.33%   856 7885s
   262    67 -467.31252   22  666 -467.80776 -461.60195  1.33%   852 7894s
   263    66     cutoff   23      -467.80776 -461.60195  1.33%   849 7896s
   266    63     cutoff   22      -467.80776 -461.63532  1.32%   845 7911s
   267    62     cutoff   24      -467.80776 -461.94587  1.25%   863 7972s
   268    61     cutoff   23      -467.80776 -461.95024  1.25%   864 7983s
   269    60     cutoff   24      -467.80776 -462.07663  1.23%   865 7995s
   270    59     cutoff   16      -467.80776 -462.19309  1.20%   865 8005s
   271    58     cutoff    8      -467.80776 -462.19342  1.20%   879 8048s
   272    57     cutoff   25      -467.80776 -462.20077  1.20%   882 8063s
   273    56     cutoff    7      -467.80776 -462.30508  1.18%   880 8067s
   274    57 -463.26805   16  558 -467.80776 -462.30508  1.18%   881 8079s
   275    58 -464.06325   17  556 -467.80776 -462.30508  1.18%   881 8089s
   276    59 -464.79504   18  552 -467.80776 -462.30508  1.18%   880 8097s
   277    58     cutoff   19      -467.80776 -462.30508  1.18%   880 8105s
   278    59 -464.91885   19  532 -467.80776 -462.30508  1.18%   877 8110s
   279    60 -465.74426   20  531 -467.80776 -462.30508  1.18%   876 8115s
   280    61 -465.89902   21  537 -467.80776 -462.30508  1.18%   876 8122s
   281    62 -466.72442   22  672 -467.80776 -462.30508  1.18%   876 8132s
   282    63 -467.44092   23  669 -467.80776 -462.30508  1.18%   876 8140s
   284    61     cutoff   24      -467.80776 -462.30508  1.18%   871 8145s
   287    58     cutoff   21      -467.80776 -462.30508  1.18%   866 8153s
   288    57     cutoff   20      -467.80776 -462.30508  1.18%   866 8162s
   289    56     cutoff   16      -467.80776 -462.32879  1.17%   868 8178s
   290    55     cutoff   11      -467.80776 -462.32935  1.17%   866 8185s
   291    56 -463.29176   11  708 -467.80776 -462.57013  1.12%   866 8193s
   292    57 -463.85583   12  701 -467.80776 -462.57013  1.12%   865 8201s
   293    56     cutoff   13      -467.80776 -462.57013  1.12%   864 8211s
   294    57 -464.02467   13  704 -467.80776 -462.57013  1.12%   862 8216s
   295    56     cutoff   12      -467.80776 -462.57013  1.12%   865 8232s
   296    57 -464.43737   14  555 -467.80776 -462.57013  1.12%   864 8237s
   297    58 -464.85007   15  535 -467.80776 -462.57013  1.12%   862 8245s
   298    57     cutoff   15      -467.80776 -462.57013  1.12%   863 8258s
   299    58 -465.95061   16  339 -467.80776 -462.57013  1.12%   862 8264s
   300    59 -466.56966   17  336 -467.80776 -462.57013  1.12%   860 8269s
   301    58     cutoff   17      -467.80776 -462.57013  1.12%   858 8273s
   302    59 -467.05740   18  346 -467.80776 -462.57013  1.12%   857 8277s
   303    58     cutoff   19      -467.80776 -462.57013  1.12%   855 8280s
   305    56     cutoff   18      -467.80776 -462.57013  1.12%   852 8285s
   306    55     cutoff   25      -467.80776 -462.85534  1.06%   851 8290s
   307    54     cutoff   17      -467.80776 -462.94249  1.04%   851 8299s
   308    53     cutoff   26      -467.80776 -462.96797  1.03%   874 8399s
   309    52     cutoff   18      -467.80776 -462.97763  1.03%   873 8405s
   310    51     cutoff   23      -467.80776 -462.97763  1.03%   874 8417s
   311    50     cutoff   26      -467.80776 -463.33392  0.96%   874 8427s
   312    49     cutoff   17      -467.80776 -463.57738  0.90%   874 8433s
   313    48     cutoff    9      -467.80776 -463.68075  0.88%   897 8534s
   314    47     cutoff   17      -467.80776 -463.68075  0.88%   898 8543s
   315    46     cutoff   19      -467.80776 -463.68075  0.88%   899 8552s
   316    45     cutoff   18      -467.80776 -463.68766  0.88%   898 8559s
   317    44     cutoff   27      -467.80776 -463.83556  0.85%   896 8561s
   318    43     cutoff   27      -467.80776 -463.86712  0.84%   896 8569s
   319    42     cutoff   29      -467.80776 -463.86771  0.84%   894 8572s
   320    41     cutoff   25      -467.80776 -464.03831  0.81%   893 8580s
   321    40     cutoff   14      -467.80776 -464.05593  0.80%   893 8588s
   322    39     cutoff   20      -467.80776 -464.06417  0.80%   891 8590s
   323    38     cutoff   18      -467.80776 -464.09345  0.79%   894 8608s
   324    37     cutoff   20      -467.80776 -464.16258  0.78%   893 8614s
   325    36     cutoff   20      -467.80776 -464.38023  0.73%   893 8622s
   326    35     cutoff   26      -467.80776 -464.39230  0.73%   893 8630s
   328    35 -465.49284   12  775 -467.80776 -464.42945  0.72%   890 8641s
   329    36 -466.04311   13  545 -467.80776 -464.42945  0.72%   888 8645s
   330    37 -466.60718   14  539 -467.80776 -464.42945  0.72%   887 8651s
   331    38 -467.08281   15  550 -467.80776 -464.42945  0.72%   885 8655s
   333    38 -467.25749   16  493 -467.80776 -464.42945  0.72%   880 8661s
   335    38     cutoff   18      -467.80776 -464.42945  0.72%   876 8665s
   338    35     cutoff   28      -467.80776 -464.51307  0.70%   871 8674s
   339    34     cutoff   18      -467.80776 -464.62843  0.68%   872 8683s
   340    35 -464.62843   21  511 -467.80776 -464.62843  0.68%   870 8686s
   341    34     cutoff   22      -467.80776 -464.62843  0.68%   869 8698s
   342    35 -466.15696   22  502 -467.80776 -464.62843  0.68%   868 8707s
   343    36 -466.83670   23  456 -467.80776 -464.62843  0.68%   868 8716s
   344    35     cutoff   24      -467.80776 -464.62843  0.68%   871 8730s
   345    36 -467.39506   24  268 -467.80776 -464.62843  0.68%   871 8736s
   346    35     cutoff   25      -467.80776 -464.62843  0.68%   870 8741s
   348    33     cutoff   23      -467.80776 -464.62843  0.68%   867 8745s
   349    32     cutoff   31      -467.80776 -464.63565  0.68%   866 8750s
   351    32 -466.98236   19  668 -467.80776 -464.78128  0.65%   863 8760s
   354    29     cutoff   29      -467.80776 -464.78128  0.65%   859 8769s
   355    28     cutoff   19      -467.80776 -464.86431  0.63%   857 8771s
   356    27     cutoff   16      -467.80776 -465.21771  0.55%   859 8785s
   358    25     cutoff   13      -467.80776 -465.21771  0.55%   855 8790s
   360    23     cutoff   30      -467.80776 -465.33308  0.53%   853 8799s
   361    22     cutoff   23      -467.80776 -465.33328  0.53%   852 8803s
   362    21     cutoff   19      -467.80776 -465.45384  0.50%   853 8815s
   364    19     cutoff   36      -467.80776 -465.45384  0.50%   850 8821s
   366    17     cutoff   32      -467.80776 -465.49263  0.49%   846 8826s
   368    15     cutoff   13      -467.80776 -465.64575  0.46%   843 8831s
   369    14     cutoff   20      -467.80776 -465.79555  0.43%   842 8835s
   371    14 -467.69391    4  585 -467.80776 -466.04311  0.38%   841 8850s
   376    11     cutoff    4      -467.80776 -466.04311  0.38%   832 8857s
   377    10     cutoff    4      -467.80776 -466.04443  0.38%   831 8860s
   379     8     cutoff   14      -467.80776 -466.43209  0.29%   828 8866s
   381     6     cutoff   15      -467.80776 -466.60718  0.26%   825 8873s
   382     5     cutoff   15      -467.80776 -466.86851  0.20%   823 8875s
   387     2 -467.69391    3  754 -467.80776 -467.69391  0.02%   814 8882s
   388     1     cutoff    4      -467.80776 -467.69391  0.02%   812 8885s

Cutting planes:
  Gomory: 2
  Zero half: 634

Explored 390 nodes (552914 simplex iterations) in 8887.38 seconds
Thread count was 1 (of 80 available processors)

Solution count 2: -467.808 -18925 

Optimal solution found (tolerance 1.00e-04)
Best objective -4.678077632907e+02, best bound -4.678077632907e+02, gap 0.0000%
